n_res = 3;
rcap = [23, 119, 117];
rtype = [1, 2, 2];
n_tasks = 16;
modes = [ {1, 2, 3}, {4, 5, 6}, {7, 8, 9}, {10, 11, 12}, {13, 14, 15}, {16, 17, 18}, {19, 20, 21}, {22, 23, 24}, {25, 26, 27}, {28, 29, 30}, {31, 32, 33}, {34, 35, 36}, {37, 38, 39}, {40, 41, 42}, {43, 44, 45}, {46, 47, 48} ];
succ = [ {8, 10, 12}, {10, 14, 15}, {4, 7}, {5, 6, 15}, {11, 12}, {8, 9, 14}, {8, 12, 14}, {11, 13}, {10, 11}, {13}, {16}, {13}, {16}, {}, {}, {} ];
n_opt = 48;
dur = [2, 10, 10, 1, 7, 9, 4, 6, 9, 1, 4, 8, 1, 3, 5, 2, 2, 9, 2, 7, 10, 6, 7, 10, 6, 9, 9, 1, 1, 5, 2, 2, 8, 5, 8, 8, 1, 4, 10, 4, 7, 10, 3, 7, 8, 2, 6, 10];
rreq = [|  0,  3,  0,  0,  0,  0,  4,  4,  0,  2,  2,  0,  7,  3,  2,  6,  0,  0,  7,  7,  0,  5,  0,  0,  5,  4,  4,  0,  0,  0,  2,  2,  0,  1,  0,  0,  7,  0,  0,  6,  4,  3,  0,  0,  6,  0,  3,  0
        |  7,  7,  7,  3,  2,  2,  6,  6,  6,  8,  7,  7,  7,  7,  6,  6,  7,  1,  8,  7,  5,  7,  7,  1,  7,  2,  1,  8,  9,  7,  7,  9,  6,  9,  7,  9,  8,  7,  7,  8,  5,  3,  7,  6,  5,  9,  8,  8
        |  8,  4,  6,  6,  4,  2,  9,  7,  7,  9,  9,  9,  8,  6,  4,  9,  9,  6,  9,  7,  7,  5,  4,  4,  5,  2,  3,  9,  8,  8, 10,  9,  4,  9,  6,  5,  3,  2,  1,  9,  9,  8,  2,  2,  2,  7,  6,  5 |];
